c Created with the Wolfram Language : www.wolfram.com
c 
p edge 100 794
e 1 3
e 2 4
e 4 5
e 4 7
e 5 7
e 4 9
e 7 9
e 3 10
e 3 11
e 4 11
e 8 11
e 4 12
e 5 12
e 9 13
e 1 14
e 5 14
e 13 14
e 2 15
e 8 15
e 13 15
e 3 16
e 9 16
e 14 16
e 6 17
e 12 17
e 15 17
e 2 18
e 12 18
e 7 19
e 13 19
e 6 20
e 7 20
e 8 20
e 12 21
e 16 21
e 3 22
e 1 23
e 20 23
e 22 23
e 6 24
e 8 24
e 13 24
e 21 24
e 4 25
e 11 25
e 12 25
e 20 25
e 24 25
e 3 26
e 18 27
e 2 28
e 4 28
e 5 28
e 20 28
e 21 28
e 6 29
e 8 29
e 9 29
e 14 29
e 17 29
e 21 29
e 23 29
e 25 29
e 28 29
e 1 30
e 7 30
e 8 30
e 9 30
e 13 30
e 19 30
e 23 30
e 29 30
e 16 31
e 17 31
e 18 31
e 21 31
e 22 31
e 24 31
e 25 31
e 2 32
e 6 32
e 7 32
e 11 32
e 13 32
e 15 32
e 19 32
e 24 32
e 26 32
e 27 32
e 3 33
e 15 33
e 17 33
e 18 33
e 28 33
e 30 33
e 1 34
e 6 34
e 10 34
e 11 34
e 19 34
e 21 34
e 25 34
e 28 34
e 6 35
e 13 35
e 22 35
e 33 35
e 5 36
e 13 36
e 16 36
e 19 36
e 2 37
e 6 37
e 7 37
e 9 37
e 20 37
e 23 37
e 29 37
e 33 37
e 3 38
e 6 38
e 23 38
e 30 38
e 36 38
e 5 39
e 15 39
e 16 39
e 25 39
e 3 40
e 8 40
e 19 40
e 20 40
e 23 40
e 5 41
e 13 41
e 22 41
e 2 42
e 21 42
e 22 42
e 29 42
e 39 42
e 1 43
e 3 43
e 10 43
e 16 43
e 22 43
e 28 43
e 15 44
e 21 44
e 28 44
e 33 44
e 36 44
e 39 44
e 42 44
e 43 44
e 7 45
e 9 45
e 16 45
e 17 45
e 22 45
e 36 45
e 37 45
e 41 45
e 42 45
e 2 46
e 10 46
e 13 46
e 19 46
e 37 46
e 3 47
e 10 47
e 15 47
e 18 47
e 20 47
e 39 47
e 46 47
e 8 48
e 18 48
e 21 48
e 23 48
e 24 48
e 28 48
e 12 49
e 13 49
e 16 49
e 22 49
e 27 49
e 33 49
e 42 49
e 47 49
e 4 50
e 19 50
e 24 50
e 26 50
e 29 50
e 35 50
e 49 50
e 7 51
e 8 51
e 15 51
e 17 51
e 22 51
e 23 51
e 27 51
e 28 51
e 37 51
e 42 51
e 47 51
e 5 52
e 6 52
e 8 52
e 14 52
e 23 52
e 29 52
e 33 52
e 41 52
e 48 52
e 50 52
e 6 53
e 14 53
e 16 53
e 26 53
e 34 53
e 50 53
e 52 53
e 1 54
e 6 54
e 20 54
e 24 54
e 25 54
e 26 54
e 35 54
e 42 54
e 49 54
e 2 55
e 6 55
e 7 55
e 14 55
e 19 55
e 20 55
e 29 55
e 30 55
e 35 55
e 45 55
e 48 55
e 51 55
e 52 55
e 11 56
e 27 56
e 45 56
e 52 56
e 53 56
e 54 56
e 1 57
e 11 57
e 18 57
e 20 57
e 32 57
e 37 57
e 44 57
e 49 57
e 55 57
e 56 57
e 6 58
e 11 58
e 18 58
e 21 58
e 22 58
e 23 58
e 27 58
e 29 58
e 39 58
e 44 58
e 47 58
e 2 59
e 6 59
e 7 59
e 8 59
e 18 59
e 20 59
e 24 59
e 40 59
e 41 59
e 44 59
e 56 59
e 2 60
e 6 60
e 7 60
e 14 60
e 19 60
e 24 60
e 25 60
e 35 60
e 44 60
e 50 60
e 5 61
e 7 61
e 12 61
e 15 61
e 18 61
e 30 61
e 43 61
e 56 61
e 5 62
e 9 62
e 17 62
e 23 62
e 26 62
e 31 62
e 1 63
e 4 63
e 7 63
e 19 63
e 20 63
e 21 63
e 30 63
e 38 63
e 52 63
e 56 63
e 57 63
e 60 63
e 61 63
e 3 64
e 12 64
e 14 64
e 21 64
e 22 64
e 36 64
e 42 64
e 50 64
e 52 64
e 55 64
e 1 65
e 4 65
e 5 65
e 6 65
e 17 65
e 20 65
e 23 65
e 30 65
e 34 65
e 41 65
e 4 66
e 7 66
e 8 66
e 15 66
e 19 66
e 23 66
e 26 66
e 31 66
e 32 66
e 33 66
e 57 66
e 58 66
e 61 66
e 64 66
e 12 67
e 14 67
e 26 67
e 33 67
e 35 67
e 36 67
e 37 67
e 40 67
e 42 67
e 44 67
e 60 67
e 66 67
e 1 68
e 4 68
e 20 68
e 48 68
e 51 68
e 60 68
e 67 68
e 5 69
e 7 69
e 24 69
e 42 69
e 46 69
e 47 69
e 50 69
e 57 69
e 62 69
e 63 69
e 64 69
e 66 69
e 1 70
e 10 70
e 14 70
e 15 70
e 19 70
e 20 70
e 28 70
e 33 70
e 36 70
e 41 70
e 56 70
e 59 70
e 67 70
e 18 71
e 35 71
e 36 71
e 38 71
e 39 71
e 44 71
e 45 71
e 50 71
e 56 71
e 62 71
e 5 72
e 9 72
e 12 72
e 26 72
e 34 72
e 35 72
e 38 72
e 53 72
e 55 72
e 60 72
e 65 72
e 70 72
e 71 72
e 8 73
e 9 73
e 10 73
e 14 73
e 17 73
e 20 73
e 23 73
e 24 73
e 36 73
e 37 73
e 41 73
e 45 73
e 46 73
e 47 73
e 52 73
e 1 74
e 6 74
e 15 74
e 16 74
e 20 74
e 22 74
e 27 74
e 37 74
e 52 74
e 55 74
e 56 74
e 67 74
e 73 74
e 3 75
e 4 75
e 31 75
e 43 75
e 51 75
e 1 76
e 17 76
e 19 76
e 38 76
e 45 76
e 46 76
e 49 76
e 50 76
e 53 76
e 67 76
e 72 76
e 7 77
e 8 77
e 19 77
e 22 77
e 27 77
e 28 77
e 34 77
e 39 77
e 67 77
e 76 77
e 13 78
e 17 78
e 22 78
e 28 78
e 31 78
e 32 78
e 35 78
e 41 78
e 43 78
e 46 78
e 47 78
e 48 78
e 52 78
e 53 78
e 57 78
e 59 78
e 62 78
e 65 78
e 72 78
e 75 78
e 76 78
e 2 79
e 18 79
e 37 79
e 43 79
e 56 79
e 58 79
e 73 79
e 3 80
e 4 80
e 6 80
e 23 80
e 26 80
e 45 80
e 53 80
e 62 80
e 64 80
e 14 81
e 17 81
e 23 81
e 24 81
e 30 81
e 31 81
e 39 81
e 41 81
e 42 81
e 45 81
e 48 81
e 52 81
e 54 81
e 71 81
e 73 81
e 6 82
e 9 82
e 10 82
e 11 82
e 12 82
e 19 82
e 27 82
e 36 82
e 39 82
e 43 82
e 46 82
e 50 82
e 51 82
e 52 82
e 55 82
e 63 82
e 69 82
e 81 82
e 4 83
e 22 83
e 24 83
e 35 83
e 73 83
e 76 83
e 3 84
e 5 84
e 13 84
e 14 84
e 22 84
e 23 84
e 35 84
e 47 84
e 56 84
e 64 84
e 2 85
e 5 85
e 11 85
e 12 85
e 21 85
e 25 85
e 32 85
e 33 85
e 35 85
e 41 85
e 44 85
e 61 85
e 72 85
e 75 85
e 76 85
e 80 85
e 12 86
e 20 86
e 22 86
e 27 86
e 29 86
e 32 86
e 47 86
e 51 86
e 58 86
e 65 86
e 67 86
e 4 87
e 15 87
e 17 87
e 23 87
e 24 87
e 33 87
e 36 87
e 39 87
e 54 87
e 56 87
e 62 87
e 69 87
e 72 87
e 86 87
e 2 88
e 8 88
e 13 88
e 24 88
e 26 88
e 29 88
e 34 88
e 40 88
e 42 88
e 43 88
e 44 88
e 67 88
e 69 88
e 83 88
e 2 89
e 12 89
e 14 89
e 36 89
e 40 89
e 55 89
e 58 89
e 63 89
e 67 89
e 68 89
e 70 89
e 71 89
e 73 89
e 86 89
e 15 90
e 18 90
e 24 90
e 28 90
e 31 90
e 47 90
e 65 90
e 73 90
e 75 90
e 78 90
e 79 90
e 83 90
e 1 91
e 11 91
e 20 91
e 24 91
e 25 91
e 27 91
e 32 91
e 34 91
e 56 91
e 71 91
e 78 91
e 82 91
e 87 91
e 88 91
e 5 92
e 13 92
e 18 92
e 23 92
e 25 92
e 30 92
e 40 92
e 48 92
e 52 92
e 60 92
e 64 92
e 70 92
e 71 92
e 4 93
e 9 93
e 10 93
e 13 93
e 25 93
e 27 93
e 29 93
e 33 93
e 38 93
e 51 93
e 55 93
e 62 93
e 69 93
e 70 93
e 73 93
e 81 93
e 82 93
e 84 93
e 87 93
e 4 94
e 14 94
e 20 94
e 22 94
e 37 94
e 38 94
e 46 94
e 53 94
e 60 94
e 61 94
e 66 94
e 75 94
e 77 94
e 8 95
e 13 95
e 22 95
e 23 95
e 36 95
e 45 95
e 47 95
e 51 95
e 52 95
e 58 95
e 61 95
e 68 95
e 70 95
e 86 95
e 92 95
e 15 96
e 17 96
e 21 96
e 24 96
e 37 96
e 39 96
e 42 96
e 45 96
e 63 96
e 82 96
e 85 96
e 88 96
e 89 96
e 8 97
e 9 97
e 19 97
e 22 97
e 39 97
e 42 97
e 48 97
e 50 97
e 66 97
e 67 97
e 74 97
e 77 97
e 82 97
e 84 97
e 87 97
e 88 97
e 90 97
e 9 98
e 18 98
e 21 98
e 25 98
e 29 98
e 30 98
e 34 98
e 38 98
e 44 98
e 46 98
e 47 98
e 56 98
e 64 98
e 68 98
e 70 98
e 73 98
e 75 98
e 80 98
e 83 98
e 85 98
e 97 98
e 17 99
e 25 99
e 40 99
e 45 99
e 49 99
e 51 99
e 57 99
e 68 99
e 71 99
e 77 99
e 86 99
e 90 99
e 2 100
e 10 100
e 17 100
e 19 100
e 26 100
e 31 100
e 33 100
e 39 100
e 55 100
e 66 100
e 72 100
e 85 100
e 91 100
